c --- [ banner ] -------------------------------------------------------------
c 
c CaDiCaL Radically Simplified CDCL SAT Solver
c Copyright (c) 2016-2021 A. Biere, M. Fleury, N. Froleyks
c 
c Version 1.5.2 a5f15211db36c3956764e18194dd5bd63bf3b5e6
c g++ (GCC) 9.3.0 -Wall -Wextra -O3 -DNDEBUG
c Fri Oct 21 01:27:37 EDT 2022 Linux gra-login3 3.10.0-1160.66.1.el7.x86_64 x86_64
c 
c --- [ limit ] --------------------------------------------------------------
c 
c setting conflict limit to 200000 conflicts (due to '200000')
c 
c --- [ parsing input ] ------------------------------------------------------
c 
c reading DIMACS file from '33.cubes2723.adj'
c opening file to read '33.cubes2723.adj'
c found 'p cnf 6160 1595478' header
c parsed 1595478 clauses in 22.88 seconds process time
c closing file '33.cubes2723.adj'
c after reading 1457566795 bytes 1390.0 MB
c 
c --- [ options ] ------------------------------------------------------------
c 
c all options are set to their default value
c 
c --- [ solving ] ------------------------------------------------------------
c 
c time measured in process time since initialization
c 
c  seconds    reductions  redundant   irredundant
c          MB     restarts       trail       variables
c            level   conflicts       glue         remaining
c 
c * 22.88 1379  0 0   0    0    0  0% 0 1595422 2324 38%
c { 23.14 1396  0 0   0    0    0  0% 0 1595422 2324 38%
c i 25.10 1471 669 0   3   25   24 35% 7 1595422 2323 38%
c i 25.14 1473 643 0   3   26   24 35% 7 1595422 2322 38%
c i 26.35 1486 273 0  10   68   56 30% 15 1595422 2321 38%
c i 26.74 1491 253 0  13   76   62 29% 14 1595422 2320 38%
c i 27.84 1498 193 0  19  109   89 29% 18 1595422 2319 38%
c i 28.01 1500 183 0  21  118   97 29% 20 1595422 2318 38%
c i 28.51 1502 163 0  27  144  118 29% 23 1595422 2317 38%
c i 28.73 1503 158 0  30  153  125 29% 24 1595422 2316 38%
c i 28.91 1505 155 0  33  163  133 29% 26 1595422 2315 38%
c i 28.95 1506 151 0  34  167  136 29% 26 1595422 2314 38%
c i 28.99 1506 147 0  35  173  140 29% 25 1595422 2313 38%
c i 29.00 1506 146 0  35  174  140 29% 25 1595422 2312 38%
c i 29.01 1506 145 0  35  176  141 29% 25 1595422 2311 38%
c i 29.05 1506 143 0  36  179  143 29% 25 1595422 2310 38%
c i 29.43 1506 129 0  43  206  168 29% 26 1595422 2300 37%
c i 29.50 1506 127 0  44  213  172 29% 26 1595422 2299 37%
c i 30.06 1507 111 0  48  268  218 29% 26 1595422 2298 37%
c i 30.11 1507 111 0  49  271  220 29% 26 1595422 2297 37%
c 
c  seconds     reductions  redundant    irredundant
c          MB      restarts       trail        variables
c             level   conflicts       glue          remaining
c 
c i 30.27 1507 106 0  54  298  241 29% 28 1595422 2296 37%
c - 34.06 1468 105 1  56  301  242 29% 27 267877 2296 37%
c i 34.27 1390 105 1  57  306  246 29% 27 267877 2295 37%
c i 34.65 1390 104 1  63  340  272 28% 28 267877 2294 37%
c i 34.73 1390 104 1  64  342  273 28% 28 267877 2293 37%
c i 34.74 1390 103 1  64  343  273 28% 28 267877 2292 37%
c i 34.77 1390 103 1  65  344  273 28% 28 267877 2291 37%
c i 34.83 1390 102 1  67  351  279 28% 28 267877 2290 37%
c i 34.84 1390 101 1  67  354  281 28% 28 267877 2289 37%
c i 34.86 1390 100 1  67  358  284 28% 28 267877 2288 37%
c i 35.59 1390 96 1  83  442  355 28% 29 267877 2287 37%
c i 35.71 1390 96 1  86  450  362 28% 30 267877 2286 37%
c i 36.02 1390 93 1  96  485  390 28% 31 267877 2285 37%
c i 36.21 1390 93 1 102  505  409 28% 32 267877 2284 37%
c i 36.80 1390 89 1 111  599  474 28% 32 267877 2283 37%
c i 36.81 1390 89 1 111  600  474 28% 32 267877 2282 37%
c i 36.86 1390 88 1 111  619  485 28% 32 267877 2281 37%
c i 36.89 1390 88 1 111  625  490 28% 32 267877 2280 37%
c i 36.96 1390 87 1 111  651  509 28% 32 267877 2279 37%
c i 37.06 1390 85 1 111  671  528 28% 32 267877 2278 37%
c 
c  seconds    reductions  redundant   irredundant
c          MB     restarts       trail       variables
c            level   conflicts       glue         remaining
c 
c i 37.09 1390 85 1 111  679  534 28% 32 267877 2277 37%
c i 37.37 1390 85 1 121  728  581 29% 33 267877 2276 37%
c i 37.38 1390 85 1 122  730  581 28% 33 267877 2274 37%
c i 37.47 1390 86 1 125  750  597 29% 34 267877 2273 37%
c i 38.66 1390 84 1 154  919  746 29% 35 267877 2272 37%
c i 38.71 1390 83 1 154  937  762 28% 35 267877 2271 37%
c i 38.75 1390 82 1 154  975  792 28% 35 267877 2270 37%
c i 38.80 1390 81 1 154  992  807 29% 35 267877 2269 37%
c } 38.82 1390 81 1 154 1000  815 29% 35 267877 2269 37%
c [ 38.82 1390  0 1 154 1000  815  0% 0 267877 2269 37%
c O 38.82 1390 25 1 154 1002  816 20% 18 267877 2269 37%
c i 38.82 1390 25 1 154 1002  816 20% 18 267877 2254 37%
c i 39.00 1390 15 1 154 1022  833 29% 11 267877 2253 37%
c i 39.02 1390 17 1 154 1048  850 31% 14 267877 2252 37%
c i 39.05 1390 18 1 154 1105  891 31% 15 267877 2251 37%
c i 39.06 1390 17 1 154 1135  910 32% 15 267877 2250 37%
c i 39.07 1390 17 1 154 1140  912 32% 15 267877 2249 37%
c - 39.62 1504 17 2 154 1157  800 32% 15 267540 2249 37%
c i 39.70 1504 17 2 154 1167  809 32% 14 267540 2248 36%
c i 39.70 1504 17 2 154 1172  812 32% 14 267540 2247 36%
c 
c  seconds    reductions  redundant   irredundant
c          MB     restarts       trail       variables
c            level   conflicts       glue         remaining
c 
c i 39.82 1504 17 2 154 1199  833 32% 15 267540 2246 36%
c i 39.86 1504 17 2 154 1239  857 32% 15 267540 2245 36%
c i 39.88 1504 17 2 154 1249  866 32% 15 267540 2244 36%
c i 39.91 1504 19 2 154 1285  895 32% 16 267540 2243 36%
c i 39.95 1504 20 2 154 1406  985 32% 17 267540 2242 36%
c ] 40.13 1504 22 2 154 1836 1284 31% 19 267540 2242 36%
c 1 40.13 1504 22 2 154 1836 1284 31% 19 267540 2242 36%
c 
c --- [ writing output ] -----------------------------------------------------
c 
c writing simplified CNF to DIMACS file 'simp/33.cubes2723.adj.simp1'
c * 40.13 1504 22 2 154 1836 1284 31% 19 267540 2242 36%
c opening file to write 'simp/33.cubes2723.adj.simp1'
c writing 'p cnf 6160 267519' header
c closing file 'simp/33.cubes2723.adj.simp1'
c after writing 129913723 bytes 123.9 MB
c wrote 267519 clauses in 0.99 seconds process time
c 
c --- [ writing extension ] --------------------------------------------------
c 
c writing extension stack to 'simp/33.cubes2723.adj.ext1'
c opening file to write 'simp/33.cubes2723.adj.ext1'
c closing file 'simp/33.cubes2723.adj.ext1'
c after writing 11460 bytes 0.0 MB
c wrote 774 witnesses in 0.00 seconds process time
c 
c --- [ result ] -------------------------------------------------------------
c 
s SATISFIABLE
c 
c --- [ run-time profiling ] -------------------------------------------------
c 
c process time taken by individual solving procedures
c (percentage relative to process time for solving)
c 
c        22.88  132.63% parse
c        17.25  100.00% search
c        15.67   90.86% unstable
c         1.31    7.61% stable
c         0.26    1.53% lucky
c         0.00    0.00% simplify
c   =================================
c        17.25   41.95% solve
c 
c last line shows process time for solving
c (percentage relative to total process time)
c 
c --- [ statistics ] ---------------------------------------------------------
c 
c chronological:               536        29.19 %  of conflicts
c conflicts:                  1836       106.44    per second
c decisions:                 21060      1220.91    per second
c fixed:                       774        12.56 %  of all variables
c learned:                    1764        96.08 %  per conflict
c learned_lits:             334184       100.00 %  learned literals
c minimized:                     0         0.00 %  learned literals
c shrunken:                 157887        47.25 %  learned literals
c minishrunken:              46753        13.99 %  learned literals
c propagations:             359357         0.02 M  per second
c reduced:                     126         6.86 %  per conflict
c rephased:                      1      1836.00    interval
c restarts:                    154        11.92    interval
c stabilizing:                   1        45.53 %  of conflicts
c subsumed:                    295         0.01 %  of all clauses
c 
c seconds are measured in process time for solving
c 
c --- [ resources ] ----------------------------------------------------------
c 
c total process time since initialization:        41.12    seconds
c total real time since initialization:           66.58    seconds
c maximum resident set size of process:         1506.88    MB
c 
c --- [ shutting down ] ------------------------------------------------------
c 
c exit 10
WARNING! DIMACS header mismatch: wrong number of variables.
============================[ Problem Statistics ]=============================
|                                                                             |
|  Number of variables:          6120                                         |
|  Number of clauses:          267519                                         |
|  Parse time:                   1.73 s                                       |
|  Simplification time:          0.03 s                                       |
|                                                                             |
============================[ Search Statistics ]====================================================
| Conflicts |          ORIGINAL         |          LEARNT          | Num Sols |      SUBGRAPHS      |
|           |    Vars  Clauses Literals |    Limit  Clauses Lit/Cl |          | Canonical Noncanon. |
=====================================================================================================
|       102 |    6025   267521 28060803 |     2000      101    134 |        0 |        21         2 |
|       253 |    6023   267522 28060821 |     2000      250    125 |        0 |        32         3 |
|       581 |    6021   267625 28062361 |     2000      576     90 |        0 |        90       106 |
|       923 |    6013   267630 28062411 |     2000      910    102 |        0 |        96       111 |
|      1467 |    6008   267668 28063189 |     2000     1449    112 |        0 |       120       149 |
|      2430 |    6003   267872 28066002 |     3590     1418     59 |        0 |       175       353 |
|      3715 |    5997   268018 28068969 |     3590     2697     76 |        0 |       209       499 |
|      5458 |    5994   268053 28069741 |     4992     2648     62 |        0 |       232       534 |
|      8282 |    5991   268315 28074919 |     6297     2978     46 |        0 |       310       796 |
|     12569 |    5990   268758 28081888 |     7552     4121     46 |        0 |       419      1239 |
|     18515 |    5990   268938 28085174 |     8785     6300     62 |        0 |       495      1419 |
|     28760 |    5990   270534 28106792 |    11201     7161     47 |        0 |       773      3015 |
|     44429 |    5990   273229 28145076 |    13607    11036     46 |        0 |      1360      5710 |
|     65258 |    5988   274597 28166885 |    17215     9673     30 |        0 |      1567      7078 |
|     98775 |    5988   278922 28223968 |    20812    15587     38 |        0 |      1927     11403 |
|    143746 |    5988   280104 28242440 |    25611    15357     39 |        0 |      2135     12585 |
|    210396 |    5988   281070 28259351 |    30412    27208     61 |        1 |      2608     13550 |
|    309496 |    5988   281530 28269604 |    37611    26107     48 |        1 |      3025     14124 |
|    458232 |    5988   282477 28291648 |    46015    30647     49 |        1 |      3471     15071 |
|    683742 |    5988   286304 28361873 |    55610    55352     69 |        1 |      4398     18898 |
|   1019752 |    5988   289789 28423783 |    68815    52567     61 |        1 |      5259     22383 |
|   1520340 |    5988   291589 28464901 |    84412    59152     56 |        5 |      6064     24179 |
|   2270809 |    5988   293876 28517732 |   103623    62432     47 |        5 |      7186     26466 |
=====================================================================================================
Number of solutions   : 6
Canonical subgraphs   : 7778           (12 /sec)
          order  3    : 1              (166667 /sec)
          order  4    : 1              (500000 /sec)
          order  5    : 1              (250000 /sec)
          order  6    : 1              (55556 /sec)
          order  7    : 1              (8772 /sec)
          order  8    : 2              (1358 /sec)
          order  9    : 6              (316 /sec)
          order 10    : 14             (67 /sec)
          order 11    : 42             (24 /sec)
          order 12    : 193            (17 /sec)
          order 13    : 814            (17 /sec)
          order 14    : 807            (22 /sec)
          order 15    : 1453           (16 /sec)
          order 16    : 1409           (13 /sec)
          order 17    : 2058           (10 /sec)
          order 18    : 769            (8 /sec)
          order 19    : 102            (9 /sec)
          order 20    : 50             (9 /sec)
          order 21    : 48             (9 /sec)
          order 22    : 6              (1 /sec)
Noncanonical subgraphs: 28191          (206 /sec)
          order  3    : 0              (-nan /sec)
          order  4    : 0              (-nan /sec)
          order  5    : 0              (-nan /sec)
          order  6    : 0              (-nan /sec)
          order  7    : 0              (-nan /sec)
          order  8    : 0              (-nan /sec)
          order  9    : 0              (-nan /sec)
          order 10    : 0              (-nan /sec)
          order 11    : 0              (-nan /sec)
          order 12    : 0              (-nan /sec)
          order 13    : 1669           (5772 /sec)
          order 14    : 12835          (866 /sec)
          order 15    : 3513           (1064 /sec)
          order 16    : 526            (435 /sec)
          order 17    : 9256           (87 /sec)
          order 18    : 346            (71 /sec)
          order 19    : 0              (-nan /sec)
          order 20    : 0              (-nan /sec)
          order 21    : 0              (-nan /sec)
Canonicity checking   : 624.211 s
Noncanonicity checking: 136.879 s
Total canonicity time : 761.09 s
database reductions   : 96
restarts              : 5118
conflicts             : 2955170        (1173 /sec)
decisions             : 3592045        (0.00 % random) (1425 /sec)
propagations          : 332805952      (132060 /sec)
conflict literals     : 303687244      (57.74 % deleted)
actual reward         : 0.119721
Memory used           : 384.00 MB
CPU time              : 2520.1 s

UNSATISFIABLE
